x = 24;
y = 19;
c = 65;
n = 63;

p = [25  63  44  22  70  61  89  53  92  83  97  96  20  41  18  40  25  98  23  35  84  22  63  57  60  97  55  31  57  13  23  60  91  16  19  53  12  94  70  53  56  91  70  15  41  21  86  52  23  13  19  96  76  84  63  78  81  87  61  16  37  45  44];
w = [10  2  4  6  8  2  8  5  5  9  2  5  1  6  1  2  1  7  9  5  5  6  1  9  8  7  1  9  8  10  7  5  10  2  6  2  3  7  4  6  3  3  5  7  4  5  7  1  8  9  9  9  2  2  3  8  3  4  4  6  6  7  6];
s = [10  11  12  18  6  8  9  7  4  13  19  19  7  7  19  10  9  18  5  7  4  14  12  10  3  3  19  19  4  11  15  19  9  13  1  12  18  13  10  13  1  17  3  7  12  12  13  13  2  12  11  16  7  5  10  18  19  19  16  1  12  15  2];
